jobs  (incl. supersource/sink ):	102
RESOURCES
- renewable                 : 4 R
- nonrenewable              : 4 N
- doubly constrained        : 0 D
************************************************************************
PRECEDENCE RELATIONS:
jobnr.    #modes  #successors   successors
1	1	28		2 3 4 5 6 7 8 9 10 11 12 13 14 15 16 17 18 19 21 25 27 29 31 37 38 39 44 55 
2	9	18		101 74 60 59 54 52 51 50 49 47 43 41 40 36 34 26 23 20 
3	9	21		101 94 73 72 69 68 65 64 63 62 58 57 54 52 51 50 42 41 36 34 28 
4	9	18		101 92 91 73 72 68 64 58 54 53 52 51 49 48 45 43 35 24 
5	9	25		101 99 98 93 92 91 90 89 87 72 71 70 69 68 67 64 61 58 57 56 52 51 50 47 33 
6	9	15		101 100 92 74 72 70 69 68 64 60 51 50 47 32 24 
7	9	16		101 98 95 91 90 86 70 69 64 63 61 57 50 46 33 26 
8	9	14		101 100 94 92 71 65 62 60 59 56 52 51 28 22 
9	9	16		98 93 91 90 84 82 74 61 60 59 54 52 50 45 35 26 
10	9	18		100 99 98 97 96 92 83 72 68 64 61 60 59 56 50 49 47 32 
11	9	13		95 93 90 71 64 62 59 52 50 45 43 30 26 
12	9	15		100 98 93 91 90 84 73 64 62 59 57 50 47 36 26 
13	9	13		101 98 95 74 73 69 65 64 57 56 50 32 26 
14	9	21		101 99 98 96 95 94 93 92 90 89 88 86 70 69 65 64 51 50 41 35 33 
15	9	19		100 97 92 91 89 84 83 82 69 68 65 64 62 58 57 54 50 46 42 
16	9	20		100 99 96 94 90 87 86 84 82 68 65 64 60 59 58 54 53 51 49 43 
17	9	13		100 98 95 90 84 73 70 69 64 62 59 50 26 
18	9	20		100 99 96 95 94 90 89 86 74 73 71 69 68 67 64 58 57 56 50 41 
19	9	17		100 98 95 94 93 92 91 89 88 83 74 71 67 60 57 52 41 
20	9	23		100 99 98 97 96 95 94 92 89 88 87 85 84 83 81 80 79 78 77 70 68 66 65 
21	9	15		96 95 94 92 89 88 84 83 77 71 70 67 66 51 50 
22	9	13		98 97 95 93 90 89 83 80 70 69 67 50 41 
23	9	11		99 95 91 90 88 86 73 71 64 53 35 
24	9	16		99 97 96 95 93 89 87 86 83 79 78 77 67 61 59 56 
25	9	13		99 95 94 90 87 86 85 84 80 70 68 53 49 
26	9	18		99 97 96 92 89 87 85 83 81 80 79 78 77 72 68 67 66 58 
27	9	14		98 97 95 94 92 89 85 84 83 80 76 69 66 53 
28	9	16		99 98 96 91 90 89 88 87 86 85 84 83 81 79 75 70 
29	9	13		97 93 92 88 87 86 84 78 75 70 69 68 67 
30	9	13		100 99 98 91 88 84 83 82 81 79 77 75 57 
31	9	11		100 93 87 86 85 83 81 78 77 67 56 
32	9	11		93 91 89 87 86 82 79 71 67 66 58 
33	9	8		100 97 84 83 80 66 59 53 
34	9	12		100 96 93 88 86 83 82 79 78 77 76 66 
35	9	10		100 85 83 81 79 78 77 67 66 57 
36	9	10		99 95 89 81 80 79 78 76 70 66 
37	9	9		88 86 84 83 78 77 75 67 59 
38	9	9		98 94 89 85 84 77 75 67 57 
39	9	9		98 90 88 80 78 77 75 68 67 
40	9	9		99 94 87 86 84 83 82 79 75 
41	9	8		87 84 82 81 79 77 76 66 
42	9	6		96 81 79 71 66 60 
43	9	7		98 97 83 80 77 76 66 
44	9	7		98 82 80 78 77 76 72 
45	9	6		96 87 81 77 75 57 
46	9	7		94 93 88 85 80 77 75 
47	9	6		95 86 82 81 78 75 
48	9	6		98 94 86 83 82 75 
49	9	3		89 69 66 
50	9	2		85 53 
51	9	4		97 80 78 76 
52	9	4		96 86 81 78 
53	9	3		81 79 78 
54	9	3		95 81 75 
55	9	3		96 95 79 
56	9	2		84 66 
57	9	2		80 76 
58	9	2		88 75 
59	9	2		85 76 
60	9	2		77 76 
61	9	2		94 80 
62	9	2		87 86 
63	9	2		82 75 
64	9	1		66 
65	9	1		67 
66	9	1		75 
67	9	1		76 
68	9	1		76 
69	9	1		77 
70	9	1		82 
71	9	1		76 
72	9	1		75 
73	9	1		79 
74	9	1		78 
75	9	1		102 
76	9	1		102 
77	9	1		102 
78	9	1		102 
79	9	1		102 
80	9	1		102 
81	9	1		102 
82	9	1		102 
83	9	1		102 
84	9	1		102 
85	9	1		102 
86	9	1		102 
87	9	1		102 
88	9	1		102 
89	9	1		102 
90	9	1		102 
91	9	1		102 
92	9	1		102 
93	9	1		102 
94	9	1		102 
95	9	1		102 
96	9	1		102 
97	9	1		102 
98	9	1		102 
99	9	1		102 
100	9	1		102 
101	9	1		102 
102	1	0		
************************************************************************
REQUESTS/DURATIONS
jobnr.	mode	dur	R1	R2	R3	R4	N1	N2	N3	N4	
------------------------------------------------------------------------
1	1	0	0	0	0	0	0	0	0	0	
2	1	1	4	5	5	5	26	30	29	29	
	2	2	4	5	5	4	24	27	29	28	
	3	6	4	5	5	4	20	25	29	28	
	4	7	4	5	5	4	20	25	28	27	
	5	8	3	5	5	4	18	24	27	26	
	6	9	3	5	5	3	15	22	27	26	
	7	10	2	5	5	3	13	20	27	26	
	8	20	2	5	5	3	10	18	26	25	
	9	24	2	5	5	3	9	17	26	25	
3	1	5	5	1	4	5	26	23	12	28	
	2	6	5	1	3	5	21	23	11	28	
	3	7	5	1	3	5	18	23	11	28	
	4	8	5	1	3	5	18	23	10	28	
	5	16	5	1	3	5	14	22	10	28	
	6	25	5	1	3	5	11	22	10	28	
	7	26	5	1	3	5	9	21	9	28	
	8	27	5	1	3	5	5	21	8	28	
	9	28	5	1	3	5	1	21	8	28	
4	1	1	4	4	3	3	22	10	25	7	
	2	3	4	3	3	3	17	8	23	6	
	3	5	4	3	3	3	15	8	23	6	
	4	9	4	3	3	2	15	6	21	4	
	5	12	4	3	3	2	12	6	20	4	
	6	13	3	3	3	2	9	5	17	4	
	7	24	3	3	3	1	7	3	16	2	
	8	25	3	3	3	1	6	2	13	2	
	9	29	3	3	3	1	3	2	12	1	
5	1	9	1	1	1	2	15	17	19	16	
	2	10	1	1	1	2	15	17	17	16	
	3	12	1	1	1	2	15	16	17	16	
	4	15	1	1	1	2	14	15	16	16	
	5	17	1	1	1	1	14	13	13	15	
	6	19	1	1	1	1	14	11	13	15	
	7	23	1	1	1	1	14	11	11	14	
	8	28	1	1	1	1	13	10	9	14	
	9	30	1	1	1	1	13	8	8	14	
6	1	10	3	3	5	1	19	21	19	11	
	2	11	3	3	5	1	18	20	18	10	
	3	12	3	3	5	1	16	20	18	9	
	4	21	3	2	5	1	15	18	17	8	
	5	22	2	2	5	1	13	18	15	7	
	6	24	2	2	5	1	11	17	15	7	
	7	26	1	1	5	1	8	16	14	6	
	8	29	1	1	5	1	7	14	12	5	
	9	30	1	1	5	1	5	13	12	5	
7	1	10	3	5	3	5	15	8	15	23	
	2	12	2	4	3	4	14	7	15	21	
	3	13	2	4	3	4	13	6	15	19	
	4	14	2	4	3	4	13	6	14	19	
	5	20	2	3	3	4	12	5	14	17	
	6	21	1	3	3	4	12	5	13	17	
	7	24	1	3	3	4	11	3	12	16	
	8	27	1	3	3	4	9	2	12	15	
	9	30	1	3	3	4	9	2	12	14	
8	1	2	4	2	2	4	21	26	21	14	
	2	5	4	2	1	3	20	25	21	13	
	3	9	4	2	1	3	19	23	20	13	
	4	17	4	2	1	2	17	22	19	12	
	5	18	3	2	1	2	14	20	18	12	
	6	22	3	1	1	2	12	19	16	11	
	7	25	3	1	1	1	9	18	15	10	
	8	26	2	1	1	1	7	16	14	10	
	9	28	2	1	1	1	6	15	14	10	
9	1	9	2	3	2	4	30	24	17	24	
	2	19	1	2	1	4	28	24	16	23	
	3	20	1	2	1	4	25	20	16	22	
	4	22	1	2	1	4	23	20	16	21	
	5	25	1	2	1	4	21	18	15	20	
	6	26	1	1	1	4	20	15	15	18	
	7	27	1	1	1	4	18	14	15	17	
	8	28	1	1	1	4	15	11	15	17	
	9	29	1	1	1	4	14	10	15	15	
10	1	2	4	3	3	3	27	24	29	13	
	2	3	3	3	3	3	27	21	29	13	
	3	4	3	3	3	3	27	20	29	13	
	4	10	2	3	2	3	27	18	29	13	
	5	14	2	3	2	3	27	17	28	12	
	6	21	2	3	2	3	27	15	28	12	
	7	25	1	3	2	3	27	12	27	12	
	8	28	1	3	1	3	27	9	27	12	
	9	30	1	3	1	3	27	8	27	12	
11	1	9	3	1	4	5	14	26	19	18	
	2	11	3	1	4	4	13	26	18	14	
	3	14	3	1	4	4	13	26	17	13	
	4	15	3	1	4	4	12	26	17	12	
	5	18	3	1	3	4	11	26	16	10	
	6	20	3	1	3	4	11	26	15	8	
	7	22	3	1	3	4	11	26	14	5	
	8	23	3	1	3	4	9	26	13	3	
	9	30	3	1	3	4	9	26	13	2	
12	1	1	4	4	5	3	25	19	25	28	
	2	2	4	4	4	3	24	19	23	25	
	3	7	4	4	4	3	24	18	22	24	
	4	8	4	4	4	3	24	16	21	23	
	5	17	4	4	4	2	23	15	20	21	
	6	19	3	3	4	2	23	15	19	19	
	7	24	3	3	4	2	22	14	18	18	
	8	25	3	3	4	2	22	13	17	15	
	9	28	3	3	4	2	22	12	16	13	
13	1	1	1	4	4	4	19	16	8	23	
	2	5	1	3	4	4	18	15	8	22	
	3	7	1	3	3	4	17	15	8	21	
	4	9	1	2	3	3	15	15	8	19	
	5	11	1	2	3	3	11	14	8	17	
	6	13	1	2	2	2	11	14	8	17	
	7	14	1	2	1	2	8	14	8	16	
	8	25	1	1	1	1	7	14	8	13	
	9	26	1	1	1	1	4	14	8	13	
14	1	2	2	5	4	2	24	13	29	27	
	2	6	1	5	4	1	22	12	27	24	
	3	9	1	5	4	1	22	12	24	23	
	4	12	1	5	3	1	20	11	23	20	
	5	19	1	5	3	1	19	10	22	19	
	6	23	1	5	2	1	19	9	20	16	
	7	25	1	5	2	1	18	7	18	14	
	8	27	1	5	1	1	17	6	18	13	
	9	28	1	5	1	1	16	6	16	11	
15	1	1	4	4	3	4	13	17	15	20	
	2	20	3	4	3	4	13	17	13	20	
	3	22	3	4	3	4	11	16	13	19	
	4	23	3	4	3	4	9	15	12	18	
	5	24	3	4	2	3	8	14	11	17	
	6	25	3	4	2	3	7	14	9	15	
	7	27	3	4	2	3	5	13	9	14	
	8	29	3	4	2	2	2	12	7	12	
	9	30	3	4	2	2	1	12	7	12	
16	1	3	4	4	5	4	14	5	30	13	
	2	5	3	4	4	4	13	5	27	10	
	3	7	3	4	4	4	13	4	27	9	
	4	8	3	4	4	4	13	4	26	8	
	5	23	3	3	3	4	13	3	24	8	
	6	24	2	3	3	3	13	2	22	5	
	7	28	2	3	3	3	13	2	22	4	
	8	29	2	2	3	3	13	2	19	4	
	9	30	2	2	3	3	13	1	19	3	
17	1	5	4	4	3	3	21	25	18	24	
	2	21	4	4	3	3	17	23	18	21	
	3	24	4	4	3	3	15	23	18	19	
	4	25	4	4	3	3	13	21	18	15	
	5	26	3	4	2	2	10	16	18	14	
	6	27	3	4	2	2	10	15	18	13	
	7	28	2	4	2	2	6	12	18	11	
	8	29	2	4	1	2	6	11	18	8	
	9	30	2	4	1	2	4	9	18	5	
18	1	1	5	3	1	3	29	21	27	16	
	2	5	4	3	1	2	28	21	25	13	
	3	11	4	3	1	2	28	18	24	12	
	4	12	4	3	1	2	28	15	24	12	
	5	17	3	3	1	2	27	13	21	10	
	6	18	3	3	1	1	27	13	21	10	
	7	23	3	3	1	1	26	10	18	8	
	8	24	2	3	1	1	26	7	17	7	
	9	28	2	3	1	1	25	7	16	6	
19	1	4	1	4	3	5	21	15	25	22	
	2	5	1	4	3	4	21	14	22	22	
	3	9	1	4	3	4	21	14	19	22	
	4	18	1	4	3	4	21	14	18	21	
	5	21	1	4	3	4	21	13	16	21	
	6	23	1	4	3	3	20	13	14	21	
	7	24	1	4	3	3	20	13	9	21	
	8	25	1	4	3	3	20	13	8	20	
	9	29	1	4	3	3	20	13	6	20	
20	1	2	4	4	3	2	21	27	28	29	
	2	3	4	4	3	2	21	27	24	26	
	3	5	4	4	3	2	21	27	21	21	
	4	6	4	4	2	2	21	26	17	19	
	5	14	4	4	2	2	21	26	16	18	
	6	18	4	4	2	2	21	26	12	15	
	7	19	4	4	1	2	21	26	12	11	
	8	21	4	4	1	2	21	25	8	9	
	9	22	4	4	1	2	21	25	5	9	
21	1	4	2	3	4	2	21	27	16	20	
	2	6	2	3	4	2	18	25	13	19	
	3	7	2	3	3	2	17	25	13	19	
	4	11	2	3	3	2	16	24	12	19	
	5	13	2	3	2	2	15	21	9	19	
	6	16	2	3	2	2	12	20	8	19	
	7	19	2	3	1	2	11	18	6	19	
	8	22	2	3	1	2	10	18	4	19	
	9	25	2	3	1	2	9	16	4	19	
22	1	3	4	5	4	3	12	22	21	20	
	2	10	4	4	4	3	9	20	20	17	
	3	11	3	4	4	3	8	19	18	17	
	4	12	3	4	4	3	8	19	14	16	
	5	13	3	4	3	3	7	16	12	13	
	6	20	2	4	3	3	6	15	10	13	
	7	26	2	4	2	3	5	13	10	12	
	8	28	1	4	2	3	4	12	6	11	
	9	30	1	4	2	3	3	9	6	10	
23	1	1	3	4	4	3	26	22	16	17	
	2	2	2	4	3	3	25	20	16	14	
	3	5	2	3	3	3	23	18	14	12	
	4	6	2	3	3	2	20	15	12	12	
	5	10	2	2	3	2	20	14	11	9	
	6	16	2	2	3	2	16	13	10	8	
	7	17	2	2	3	1	16	11	7	4	
	8	23	2	1	3	1	13	9	7	2	
	9	25	2	1	3	1	12	8	4	2	
24	1	2	4	3	3	4	10	25	29	20	
	2	4	3	2	3	3	8	23	27	19	
	3	5	3	2	3	3	8	23	26	19	
	4	6	2	2	3	3	6	21	26	18	
	5	16	2	1	3	3	6	20	25	17	
	6	17	2	1	3	3	5	18	24	17	
	7	19	1	1	3	3	4	18	22	16	
	8	29	1	1	3	3	3	16	21	16	
	9	30	1	1	3	3	1	15	21	16	
25	1	2	4	3	2	3	28	29	25	26	
	2	6	4	3	2	2	28	25	22	22	
	3	7	4	3	2	2	26	22	21	21	
	4	10	4	3	2	2	25	21	18	18	
	5	15	4	3	2	2	24	18	16	17	
	6	19	4	3	2	1	24	13	16	14	
	7	21	4	3	2	1	22	11	14	12	
	8	24	4	3	2	1	21	8	10	9	
	9	28	4	3	2	1	21	6	9	6	
26	1	11	2	1	4	5	19	26	21	28	
	2	14	1	1	4	4	19	24	20	28	
	3	21	1	1	4	4	15	23	19	27	
	4	24	1	1	4	4	14	22	17	26	
	5	26	1	1	4	3	12	21	17	25	
	6	27	1	1	3	3	8	20	16	25	
	7	28	1	1	3	3	6	19	14	24	
	8	29	1	1	3	2	4	18	14	22	
	9	30	1	1	3	2	1	17	13	22	
27	1	2	3	2	4	2	11	24	14	13	
	2	3	2	2	4	1	11	24	12	13	
	3	5	2	2	4	1	11	24	11	13	
	4	7	2	2	4	1	11	24	8	13	
	5	8	1	2	3	1	11	24	8	13	
	6	9	1	2	3	1	11	23	5	13	
	7	24	1	2	2	1	11	23	3	13	
	8	27	1	2	2	1	11	23	3	12	
	9	29	1	2	2	1	11	23	2	13	
28	1	7	1	5	4	5	28	14	23	24	
	2	8	1	4	3	4	26	12	19	23	
	3	10	1	4	3	3	24	10	18	22	
	4	12	1	4	3	3	22	10	16	20	
	5	13	1	3	3	2	21	8	15	19	
	6	20	1	3	3	2	21	8	12	17	
	7	26	1	3	3	2	19	7	9	14	
	8	27	1	2	3	1	16	6	9	12	
	9	28	1	2	3	1	16	4	7	11	
29	1	1	4	5	2	3	20	23	25	27	
	2	7	4	4	2	2	16	22	22	25	
	3	8	4	4	2	2	15	22	20	22	
	4	12	3	3	2	2	13	22	18	20	
	5	13	3	3	2	2	10	22	15	17	
	6	15	2	3	2	2	8	21	12	15	
	7	19	1	3	2	2	6	21	12	12	
	8	20	1	2	2	2	5	21	9	10	
	9	29	1	2	2	2	1	21	7	10	
30	1	1	5	3	3	3	17	26	26	21	
	2	11	4	3	3	3	17	26	25	20	
	3	13	4	3	3	3	15	26	24	18	
	4	14	4	2	3	3	14	26	22	18	
	5	18	3	2	2	3	13	25	22	16	
	6	21	3	2	2	3	12	25	21	16	
	7	25	3	2	2	3	11	25	20	15	
	8	26	3	1	2	3	11	25	20	13	
	9	27	3	1	2	3	10	25	19	13	
31	1	4	4	1	5	5	12	21	8	12	
	2	9	3	1	4	4	11	21	8	11	
	3	11	3	1	3	4	11	21	8	11	
	4	17	3	1	3	3	9	20	8	11	
	5	18	3	1	3	3	8	19	7	11	
	6	19	3	1	2	3	7	19	7	11	
	7	24	3	1	1	3	6	19	7	11	
	8	26	3	1	1	2	5	18	7	11	
	9	29	3	1	1	2	5	18	7	10	
32	1	1	3	4	3	5	20	13	15	24	
	2	2	3	4	2	5	19	12	13	24	
	3	4	3	4	2	5	17	11	11	20	
	4	8	3	4	2	5	17	8	10	18	
	5	9	2	3	1	5	15	7	10	18	
	6	15	2	3	1	5	14	7	8	15	
	7	22	1	3	1	5	12	5	8	14	
	8	23	1	3	1	5	11	3	6	11	
	9	27	1	3	1	5	11	1	6	10	
33	1	2	5	2	3	5	28	23	14	24	
	2	6	4	2	3	5	27	23	13	23	
	3	7	4	2	3	5	27	20	11	22	
	4	8	3	2	2	5	27	18	10	21	
	5	9	3	2	2	5	26	16	10	21	
	6	12	3	2	2	5	26	15	10	20	
	7	17	2	2	1	5	26	13	8	18	
	8	26	2	2	1	5	26	9	8	18	
	9	28	2	2	1	5	26	9	7	16	
34	1	1	1	4	4	3	11	15	29	23	
	2	6	1	3	4	3	10	15	23	20	
	3	7	1	3	4	3	9	13	21	19	
	4	11	1	3	4	3	8	12	17	16	
	5	20	1	3	4	3	6	9	16	16	
	6	21	1	2	3	2	5	8	12	13	
	7	24	1	2	3	2	5	8	9	10	
	8	25	1	2	3	2	3	6	7	8	
	9	28	1	2	3	2	3	4	4	7	
35	1	3	4	2	2	5	17	26	19	8	
	2	5	4	2	1	4	16	24	15	7	
	3	7	4	2	1	4	16	23	15	7	
	4	8	4	2	1	4	15	19	11	7	
	5	12	4	2	1	4	14	17	10	7	
	6	16	3	2	1	4	14	14	7	7	
	7	18	3	2	1	4	13	12	7	7	
	8	21	3	2	1	4	13	12	3	7	
	9	28	3	2	1	4	13	10	1	7	
36	1	6	5	3	2	5	24	26	30	24	
	2	7	4	2	2	5	24	26	27	23	
	3	14	4	2	2	5	24	21	27	23	
	4	18	3	2	2	5	24	17	24	23	
	5	19	3	1	2	5	23	16	22	23	
	6	21	2	1	1	5	23	13	21	23	
	7	22	2	1	1	5	23	10	19	23	
	8	23	1	1	1	5	22	7	18	23	
	9	25	1	1	1	5	22	6	18	23	
37	1	1	5	5	4	4	19	24	27	20	
	2	4	4	4	4	4	18	23	24	19	
	3	8	4	4	4	4	18	23	20	18	
	4	16	4	4	4	4	16	23	17	18	
	5	17	4	4	4	4	15	22	14	15	
	6	18	4	3	4	4	14	22	11	14	
	7	19	4	3	4	4	13	21	8	13	
	8	20	4	3	4	4	13	21	3	12	
	9	21	4	3	4	4	12	21	3	12	
38	1	5	2	3	4	5	10	20	4	24	
	2	13	2	3	3	4	10	17	3	21	
	3	14	2	3	3	4	9	15	3	19	
	4	15	2	3	3	3	9	15	3	16	
	5	16	2	2	3	2	8	11	3	14	
	6	17	1	2	3	2	8	11	3	12	
	7	20	1	2	3	2	7	9	3	10	
	8	21	1	1	3	1	6	6	3	9	
	9	23	1	1	3	1	6	3	3	8	
39	1	7	5	4	2	2	24	28	27	13	
	2	9	5	4	2	1	24	28	26	11	
	3	10	5	4	2	1	20	27	25	9	
	4	13	5	4	2	1	18	26	25	8	
	5	16	5	4	2	1	13	25	25	7	
	6	19	5	3	1	1	12	23	24	5	
	7	22	5	3	1	1	8	23	23	4	
	8	23	5	3	1	1	6	22	23	4	
	9	27	5	3	1	1	3	20	23	2	
40	1	9	4	4	4	3	16	27	11	20	
	2	13	4	4	4	3	16	26	11	20	
	3	14	3	3	4	3	16	24	11	19	
	4	15	3	3	4	3	16	23	10	17	
	5	16	3	2	3	3	16	21	10	17	
	6	17	2	2	3	3	15	19	10	15	
	7	21	1	2	2	3	15	17	9	15	
	8	22	1	1	2	3	15	16	9	14	
	9	28	1	1	2	3	15	14	9	13	
41	1	1	5	3	3	3	8	14	28	25	
	2	3	4	2	3	2	7	14	28	23	
	3	4	4	2	3	2	6	13	26	21	
	4	8	4	2	3	2	6	11	26	21	
	5	13	3	1	3	1	5	10	25	17	
	6	17	3	1	2	1	5	9	24	16	
	7	24	3	1	2	1	4	8	22	14	
	8	29	2	1	2	1	4	8	22	13	
	9	30	2	1	2	1	4	7	20	11	
42	1	2	3	4	5	2	26	27	24	25	
	2	10	3	4	4	2	22	25	22	25	
	3	12	3	4	4	2	21	25	21	25	
	4	13	3	4	4	2	20	24	20	25	
	5	17	3	4	4	2	18	23	20	24	
	6	18	3	3	4	2	17	23	19	24	
	7	19	3	3	4	2	16	22	18	24	
	8	23	3	3	4	2	13	20	17	24	
	9	24	3	3	4	2	12	20	16	24	
43	1	11	1	4	1	2	21	20	24	10	
	2	12	1	4	1	2	20	18	20	9	
	3	14	1	4	1	2	19	17	18	9	
	4	17	1	4	1	2	17	16	17	8	
	5	20	1	4	1	2	17	16	13	7	
	6	21	1	4	1	2	15	15	12	7	
	7	22	1	4	1	2	14	14	9	6	
	8	26	1	4	1	2	13	12	7	6	
	9	28	1	4	1	2	12	12	3	6	
44	1	5	4	3	4	5	27	13	22	19	
	2	6	4	2	4	4	26	12	21	17	
	3	9	4	2	4	4	24	10	18	16	
	4	13	4	2	4	3	24	10	16	13	
	5	16	3	2	4	3	23	9	14	11	
	6	17	3	1	4	3	22	9	13	11	
	7	26	2	1	4	2	22	8	13	9	
	8	27	2	1	4	2	21	7	9	7	
	9	30	2	1	4	2	20	6	9	4	
45	1	3	3	3	3	3	14	4	24	13	
	2	8	3	2	2	3	12	3	22	12	
	3	12	3	2	2	3	12	3	18	12	
	4	14	3	2	2	3	9	3	18	12	
	5	17	3	2	2	3	8	2	15	11	
	6	18	3	2	2	3	7	2	15	11	
	7	25	3	2	2	3	6	2	12	11	
	8	28	3	2	2	3	5	1	10	11	
	9	30	3	2	2	3	4	1	8	11	
46	1	5	5	4	3	4	27	23	15	28	
	2	6	4	3	3	4	27	22	14	26	
	3	8	4	3	3	4	25	20	14	26	
	4	13	4	3	3	4	24	17	14	25	
	5	20	3	2	2	3	24	14	13	25	
	6	24	3	2	2	3	23	12	13	24	
	7	25	3	1	2	2	22	12	12	24	
	8	26	3	1	2	2	21	8	12	24	
	9	28	3	1	2	2	21	7	12	23	
47	1	2	4	2	2	4	7	14	26	24	
	2	3	4	2	2	4	6	14	24	23	
	3	5	4	2	2	4	5	14	22	23	
	4	6	4	2	2	4	5	14	19	21	
	5	7	4	2	2	4	4	14	18	20	
	6	8	3	2	2	4	4	14	17	19	
	7	19	3	2	2	4	4	14	14	18	
	8	27	3	2	2	4	3	14	12	18	
	9	30	3	2	2	4	3	14	11	17	
48	1	2	1	3	3	3	18	18	26	21	
	2	9	1	3	3	3	16	17	22	21	
	3	12	1	3	3	3	16	14	21	21	
	4	13	1	3	3	3	14	13	17	21	
	5	14	1	2	2	2	13	11	14	20	
	6	15	1	2	2	2	12	10	14	20	
	7	16	1	2	2	1	11	6	12	19	
	8	20	1	1	2	1	8	4	9	19	
	9	22	1	1	2	1	8	4	6	19	
49	1	9	3	2	5	2	21	24	19	16	
	2	11	2	2	4	2	16	23	17	16	
	3	12	2	2	4	2	16	20	17	13	
	4	14	2	2	3	2	14	17	17	11	
	5	15	1	2	3	2	9	15	15	10	
	6	19	1	2	3	2	7	12	15	8	
	7	21	1	2	3	2	7	12	14	6	
	8	25	1	2	2	2	3	7	14	6	
	9	27	1	2	2	2	2	5	13	3	
50	1	1	4	5	1	2	20	10	7	18	
	2	2	4	4	1	1	17	10	5	18	
	3	11	4	4	1	1	15	10	5	18	
	4	12	4	3	1	1	13	10	4	18	
	5	13	3	3	1	1	10	10	4	18	
	6	18	3	2	1	1	7	10	3	18	
	7	21	3	2	1	1	5	10	2	18	
	8	28	2	1	1	1	3	10	1	18	
	9	29	2	1	1	1	1	10	1	18	
51	1	6	2	4	1	4	24	16	9	29	
	2	8	2	4	1	4	23	16	9	28	
	3	21	2	4	1	4	21	15	8	28	
	4	22	2	4	1	4	20	13	7	27	
	5	23	2	4	1	4	20	11	7	26	
	6	25	2	4	1	4	18	11	7	26	
	7	26	2	4	1	4	18	8	6	25	
	8	27	2	4	1	4	16	8	5	25	
	9	30	2	4	1	4	15	7	5	24	
52	1	1	3	3	4	3	19	23	21	11	
	2	3	3	3	3	3	18	21	20	11	
	3	7	3	3	3	3	16	21	19	10	
	4	15	3	3	2	3	15	20	16	10	
	5	16	3	3	2	2	15	18	15	10	
	6	20	2	3	2	2	13	15	13	9	
	7	21	2	3	1	2	12	13	9	8	
	8	25	2	3	1	2	10	11	8	8	
	9	28	2	3	1	2	8	10	7	8	
53	1	3	4	3	4	5	23	14	30	12	
	2	5	4	3	4	5	21	12	29	10	
	3	10	4	3	4	5	19	12	27	9	
	4	12	4	3	4	5	18	11	27	7	
	5	13	4	3	3	5	16	10	26	5	
	6	17	4	2	3	5	15	9	25	4	
	7	20	4	2	3	5	14	7	24	3	
	8	24	4	2	2	5	13	7	23	2	
	9	28	4	2	2	5	12	5	23	1	
54	1	3	4	5	4	5	26	26	26	24	
	2	13	4	4	3	4	23	25	24	23	
	3	14	3	4	3	4	23	25	23	22	
	4	15	3	4	3	4	21	25	22	20	
	5	16	3	3	2	4	20	24	20	19	
	6	17	2	3	2	3	19	24	19	17	
	7	18	2	3	2	3	17	24	18	15	
	8	21	1	3	2	3	16	24	17	13	
	9	23	1	3	2	3	15	24	16	12	
55	1	1	2	4	5	4	18	24	18	17	
	2	8	2	4	4	3	16	21	17	17	
	3	9	2	4	4	3	16	19	14	16	
	4	14	2	4	4	2	15	17	12	14	
	5	17	1	4	3	2	15	17	11	14	
	6	18	1	4	3	2	14	15	7	13	
	7	19	1	4	3	2	14	13	6	12	
	8	25	1	4	2	1	14	9	3	11	
	9	26	1	4	2	1	13	7	2	11	
56	1	2	4	3	4	5	18	26	24	11	
	2	3	4	3	4	4	18	24	23	10	
	3	14	4	3	4	4	18	24	23	9	
	4	15	4	3	4	3	18	24	22	8	
	5	21	4	3	4	2	18	23	22	8	
	6	23	3	3	3	2	18	22	22	6	
	7	24	3	3	3	1	18	22	21	5	
	8	25	3	3	3	1	18	21	21	5	
	9	27	3	3	3	1	18	21	21	3	
57	1	3	5	1	4	3	26	11	7	12	
	2	9	4	1	3	3	25	10	6	12	
	3	11	4	1	3	3	25	9	5	11	
	4	12	4	1	3	2	24	9	5	11	
	5	14	4	1	2	2	24	9	4	10	
	6	16	4	1	2	2	23	8	3	10	
	7	25	4	1	2	2	22	8	3	9	
	8	27	4	1	1	1	21	7	2	8	
	9	28	4	1	1	1	21	7	1	8	
58	1	2	5	4	4	3	11	11	14	8	
	2	8	4	4	4	2	10	9	12	7	
	3	10	4	4	4	2	10	9	12	6	
	4	11	4	3	3	2	8	9	9	7	
	5	13	4	3	3	1	7	8	8	5	
	6	18	3	3	2	1	6	7	7	5	
	7	19	3	3	2	1	6	7	6	4	
	8	23	3	2	1	1	4	7	4	3	
	9	25	3	2	1	1	4	6	3	3	
59	1	2	5	4	5	3	23	20	26	14	
	2	12	4	3	4	2	23	19	25	13	
	3	19	4	3	4	2	20	19	23	13	
	4	21	3	3	4	2	18	19	20	12	
	5	22	2	2	3	1	16	18	20	12	
	6	23	2	2	3	1	15	18	19	12	
	7	24	2	1	3	1	12	17	16	11	
	8	25	1	1	3	1	10	17	15	11	
	9	27	1	1	3	1	10	17	12	11	
60	1	1	2	4	5	3	21	5	21	29	
	2	6	2	3	5	3	18	5	21	25	
	3	8	2	3	5	3	15	5	21	22	
	4	11	2	3	5	3	13	5	21	20	
	5	13	2	2	5	3	11	5	21	18	
	6	19	2	2	5	3	8	5	21	14	
	7	20	2	2	5	3	6	5	21	12	
	8	21	2	1	5	3	5	5	21	8	
	9	27	2	1	5	3	3	5	21	5	
61	1	7	4	4	4	2	28	8	13	13	
	2	8	4	3	4	1	28	8	12	13	
	3	12	4	3	4	1	28	7	11	13	
	4	19	3	3	4	1	27	7	11	12	
	5	24	3	3	4	1	26	6	11	12	
	6	25	3	2	4	1	26	6	10	12	
	7	26	2	2	4	1	25	6	10	12	
	8	28	2	2	4	1	25	5	9	11	
	9	29	2	2	4	1	25	5	9	10	
62	1	2	4	4	2	2	20	28	21	18	
	2	3	4	3	1	2	20	26	19	17	
	3	4	4	3	1	2	19	26	17	16	
	4	6	4	3	1	2	19	26	15	16	
	5	7	4	3	1	2	18	25	12	14	
	6	11	4	3	1	2	17	24	8	14	
	7	19	4	3	1	2	16	23	6	14	
	8	25	4	3	1	2	15	23	3	13	
	9	29	4	3	1	2	15	22	1	12	
63	1	3	3	4	4	3	5	12	26	24	
	2	4	2	4	4	3	4	11	23	22	
	3	14	2	4	4	3	4	10	18	22	
	4	16	2	3	4	3	4	8	17	21	
	5	21	2	3	3	3	4	8	13	20	
	6	22	1	2	3	3	4	6	12	20	
	7	26	1	2	3	3	4	5	10	19	
	8	28	1	1	3	3	4	4	5	18	
	9	30	1	1	3	3	4	3	4	17	
64	1	7	3	2	2	4	25	29	7	23	
	2	11	2	2	1	4	25	28	6	22	
	3	13	2	2	1	4	24	27	6	20	
	4	14	2	2	1	4	24	26	6	18	
	5	18	2	2	1	4	23	24	4	15	
	6	19	2	2	1	4	23	23	4	13	
	7	20	2	2	1	4	22	23	4	12	
	8	24	2	2	1	4	22	21	2	10	
	9	30	2	2	1	4	22	21	2	8	
65	1	2	5	3	4	4	22	27	16	25	
	2	8	4	3	4	3	21	26	14	22	
	3	9	4	3	4	3	21	23	13	21	
	4	20	4	3	4	3	21	23	11	17	
	5	22	4	3	4	3	21	21	11	15	
	6	25	3	3	4	3	21	19	10	12	
	7	26	3	3	4	3	21	15	8	11	
	8	28	3	3	4	3	21	14	7	8	
	9	30	3	3	4	3	21	13	7	4	
66	1	1	4	3	4	2	26	26	11	17	
	2	6	3	3	4	2	25	25	10	16	
	3	8	3	3	4	2	24	24	9	16	
	4	12	3	3	4	2	22	21	9	15	
	5	16	2	2	4	2	21	21	8	13	
	6	21	2	2	4	1	20	19	7	12	
	7	28	2	2	4	1	17	18	7	12	
	8	29	2	2	4	1	16	16	5	11	
	9	30	2	2	4	1	15	16	5	9	
67	1	2	3	4	4	1	29	29	24	13	
	2	3	3	3	3	1	29	24	20	12	
	3	6	3	3	3	1	28	23	18	12	
	4	7	3	3	3	1	26	20	17	12	
	5	11	2	3	3	1	26	19	12	11	
	6	12	2	3	2	1	25	16	12	11	
	7	18	2	3	2	1	23	15	9	11	
	8	22	2	3	2	1	23	12	6	10	
	9	29	2	3	2	1	22	9	4	10	
68	1	1	2	1	5	4	26	13	19	29	
	2	2	2	1	4	4	24	13	19	28	
	3	3	2	1	4	4	23	13	18	27	
	4	7	2	1	4	4	18	13	17	27	
	5	13	1	1	4	4	16	12	17	26	
	6	15	1	1	4	3	15	12	16	25	
	7	25	1	1	4	3	10	11	16	25	
	8	27	1	1	4	3	10	11	15	25	
	9	30	1	1	4	3	7	11	14	24	
69	1	1	4	4	2	3	11	16	28	28	
	2	2	4	4	2	3	11	15	27	24	
	3	3	4	3	2	3	11	15	27	22	
	4	4	4	3	2	3	11	15	26	21	
	5	5	4	2	2	3	10	15	26	19	
	6	10	4	2	2	3	10	15	26	16	
	7	13	4	1	2	3	10	15	26	14	
	8	15	4	1	2	3	10	15	25	12	
	9	24	4	1	2	3	10	15	25	11	
70	1	6	2	5	3	5	15	11	28	19	
	2	13	2	4	3	4	14	11	24	17	
	3	14	2	4	3	4	14	10	21	17	
	4	18	2	4	2	3	14	10	20	17	
	5	19	2	4	2	2	14	10	16	16	
	6	20	2	4	2	2	13	9	14	15	
	7	21	2	4	1	1	13	8	11	15	
	8	23	2	4	1	1	13	8	11	14	
	9	30	2	4	1	1	13	8	7	13	
71	1	2	5	3	4	4	22	9	27	27	
	2	7	4	3	4	4	22	8	24	26	
	3	13	4	3	3	4	21	8	24	25	
	4	18	4	3	3	4	19	8	22	25	
	5	19	4	2	3	4	19	8	17	24	
	6	20	3	2	2	4	18	7	15	23	
	7	22	3	1	2	4	17	7	14	23	
	8	26	3	1	1	4	15	7	10	22	
	9	27	3	1	1	4	15	7	8	22	
72	1	6	4	4	3	2	10	12	29	14	
	2	7	3	4	2	2	9	12	25	13	
	3	8	3	4	2	2	7	12	24	12	
	4	10	3	3	2	2	7	12	19	11	
	5	15	2	3	2	2	6	12	18	11	
	6	22	2	2	2	2	4	12	14	11	
	7	25	2	1	2	2	3	12	11	10	
	8	28	1	1	2	2	2	12	11	9	
	9	30	1	1	2	2	2	12	8	8	
73	1	4	2	1	2	1	23	26	26	14	
	2	6	1	1	2	1	22	21	24	13	
	3	8	1	1	2	1	22	20	24	13	
	4	10	1	1	2	1	22	18	20	13	
	5	15	1	1	2	1	22	13	18	13	
	6	16	1	1	2	1	22	12	16	12	
	7	17	1	1	2	1	22	7	13	12	
	8	18	1	1	2	1	22	6	10	12	
	9	19	1	1	2	1	22	3	9	12	
74	1	7	5	4	5	4	20	22	6	13	
	2	13	4	3	4	4	18	20	6	13	
	3	14	4	3	4	4	16	19	6	12	
	4	15	4	3	3	3	13	19	5	11	
	5	18	3	3	3	3	10	16	4	11	
	6	21	3	3	3	3	7	16	4	11	
	7	25	2	3	3	2	6	14	3	10	
	8	27	2	3	2	2	4	12	3	10	
	9	28	2	3	2	2	2	11	3	9	
75	1	5	3	5	5	3	17	16	21	20	
	2	11	2	4	5	2	17	13	21	19	
	3	15	2	4	5	2	16	11	20	19	
	4	16	2	4	5	2	16	11	19	19	
	5	18	2	4	5	2	16	8	17	19	
	6	23	2	4	5	2	15	8	17	19	
	7	24	2	4	5	2	14	5	16	19	
	8	26	2	4	5	2	14	4	15	19	
	9	27	2	4	5	2	14	3	13	19	
76	1	1	2	2	4	2	10	29	27	18	
	2	3	1	2	4	2	10	25	27	18	
	3	7	1	2	4	2	10	23	25	18	
	4	8	1	2	4	2	10	19	24	18	
	5	9	1	2	3	1	10	18	23	18	
	6	16	1	2	3	1	9	15	23	18	
	7	27	1	2	2	1	9	13	22	18	
	8	28	1	2	2	1	9	11	20	18	
	9	29	1	2	2	1	9	8	19	18	
77	1	2	3	3	3	1	25	25	10	13	
	2	3	3	3	2	1	24	23	10	12	
	3	4	3	3	2	1	22	21	10	12	
	4	5	3	3	2	1	22	20	10	12	
	5	6	2	3	2	1	20	20	9	11	
	6	9	2	3	1	1	18	18	9	11	
	7	15	1	3	1	1	17	17	9	11	
	8	25	1	3	1	1	14	16	8	10	
	9	30	1	3	1	1	13	15	8	10	
78	1	2	2	4	2	5	23	24	20	13	
	2	6	2	4	1	4	22	21	18	13	
	3	7	2	4	1	4	20	20	17	13	
	4	8	2	4	1	4	19	16	16	13	
	5	10	2	3	1	4	15	14	14	13	
	6	11	2	3	1	4	13	13	13	13	
	7	12	2	3	1	4	12	9	10	13	
	8	14	2	2	1	4	9	7	9	13	
	9	15	2	2	1	4	8	7	8	13	
79	1	1	5	3	2	4	21	17	25	11	
	2	4	5	2	1	4	19	17	24	11	
	3	9	5	2	1	4	18	15	24	9	
	4	10	5	2	1	4	15	15	24	8	
	5	14	5	2	1	4	14	13	24	7	
	6	15	5	2	1	4	13	13	23	7	
	7	25	5	2	1	4	11	11	23	5	
	8	26	5	2	1	4	8	10	23	4	
	9	27	5	2	1	4	7	9	23	4	
80	1	2	4	5	4	2	17	26	4	26	
	2	3	3	5	4	1	17	24	4	25	
	3	6	3	5	4	1	15	21	4	24	
	4	17	2	5	4	1	14	18	3	22	
	5	18	2	5	4	1	14	13	2	21	
	6	19	2	5	3	1	12	13	2	20	
	7	21	1	5	3	1	11	8	1	19	
	8	26	1	5	3	1	11	5	1	18	
	9	27	1	5	3	1	10	3	1	17	
81	1	5	2	3	3	3	16	23	7	28	
	2	6	2	3	3	2	13	21	6	24	
	3	9	2	3	3	2	13	17	6	21	
	4	10	2	3	3	2	9	17	6	18	
	5	11	2	3	2	2	8	14	6	16	
	6	12	2	3	2	2	7	13	6	13	
	7	16	2	3	2	2	5	11	6	13	
	8	23	2	3	1	2	4	7	6	8	
	9	27	2	3	1	2	2	6	6	5	
82	1	1	5	4	2	4	28	21	25	11	
	2	8	5	3	1	4	23	19	24	9	
	3	9	5	3	1	3	22	17	23	9	
	4	12	5	3	1	3	17	16	22	8	
	5	13	5	2	1	3	15	15	22	6	
	6	14	5	2	1	2	10	12	22	6	
	7	15	5	1	1	1	9	11	21	5	
	8	17	5	1	1	1	7	9	19	4	
	9	29	5	1	1	1	3	9	19	3	
83	1	4	2	4	2	4	11	17	22	20	
	2	12	2	4	1	4	10	16	18	18	
	3	15	2	4	1	4	9	15	17	17	
	4	18	2	4	1	4	9	13	14	16	
	5	22	2	4	1	4	6	10	10	14	
	6	24	2	4	1	3	5	8	9	13	
	7	27	2	4	1	3	5	7	7	11	
	8	29	2	4	1	3	3	4	3	9	
	9	30	2	4	1	3	1	3	2	8	
84	1	2	3	1	5	2	25	29	21	19	
	2	10	2	1	5	1	24	29	19	18	
	3	14	2	1	5	1	20	28	19	17	
	4	16	2	1	5	1	19	27	17	16	
	5	19	2	1	5	1	14	26	16	15	
	6	22	2	1	5	1	13	26	15	14	
	7	27	2	1	5	1	11	25	12	12	
	8	29	2	1	5	1	7	24	11	11	
	9	30	2	1	5	1	7	24	11	10	
85	1	5	5	4	4	4	22	27	19	21	
	2	13	4	3	4	3	20	26	18	19	
	3	14	4	3	3	3	19	25	18	19	
	4	15	4	3	3	3	17	25	18	16	
	5	17	3	3	3	3	17	24	18	16	
	6	21	3	3	2	3	14	23	17	14	
	7	25	3	3	1	3	14	23	17	12	
	8	27	3	3	1	3	11	22	17	10	
	9	28	3	3	1	3	10	22	17	9	
86	1	2	2	3	3	1	22	28	15	17	
	2	3	2	2	3	1	19	26	15	16	
	3	13	2	2	3	1	17	25	14	16	
	4	14	2	2	3	1	15	23	14	14	
	5	17	2	1	3	1	14	23	14	14	
	6	18	2	1	3	1	11	22	13	13	
	7	24	2	1	3	1	9	20	13	12	
	8	29	2	1	3	1	7	19	12	10	
	9	30	2	1	3	1	5	17	12	10	
87	1	2	5	2	5	5	20	19	27	22	
	2	10	4	2	4	4	19	18	25	19	
	3	15	4	2	4	4	19	18	21	17	
	4	18	4	2	4	4	19	17	21	16	
	5	20	4	2	3	4	19	16	19	15	
	6	21	3	2	3	4	18	16	16	13	
	7	25	3	2	3	4	18	15	15	11	
	8	27	3	2	2	4	18	15	11	8	
	9	28	3	2	2	4	18	15	10	7	
88	1	3	3	3	1	3	29	27	24	24	
	2	7	2	3	1	3	26	27	22	23	
	3	11	2	3	1	3	25	27	22	18	
	4	20	2	2	1	3	25	27	21	17	
	5	21	1	2	1	2	23	26	19	15	
	6	25	1	2	1	2	22	26	19	13	
	7	26	1	1	1	2	21	26	17	11	
	8	28	1	1	1	2	18	26	16	6	
	9	29	1	1	1	2	18	26	15	4	
89	1	4	3	3	4	3	27	27	26	22	
	2	14	3	3	4	2	22	23	24	22	
	3	16	3	3	4	2	20	22	24	22	
	4	17	3	3	4	2	19	20	23	22	
	5	18	3	3	4	2	16	14	23	21	
	6	19	3	3	4	1	14	14	22	21	
	7	24	3	3	4	1	13	9	21	20	
	8	26	3	3	4	1	9	6	20	20	
	9	30	3	3	4	1	7	4	20	20	
90	1	3	5	5	2	5	22	25	30	12	
	2	4	4	4	2	4	22	23	27	11	
	3	11	4	4	2	4	18	19	27	10	
	4	12	4	4	2	4	16	19	26	9	
	5	17	4	3	1	3	15	15	23	8	
	6	18	4	3	1	3	12	10	23	7	
	7	19	4	3	1	2	12	10	21	7	
	8	22	4	3	1	2	10	7	21	6	
	9	30	4	3	1	2	8	4	19	4	
91	1	2	4	4	3	5	9	12	23	14	
	2	3	4	3	3	4	8	10	21	12	
	3	4	4	3	3	4	8	10	21	11	
	4	6	3	2	3	4	8	8	20	10	
	5	8	2	2	3	3	8	6	19	9	
	6	13	2	2	3	3	7	5	17	7	
	7	15	2	1	3	2	7	4	17	5	
	8	16	1	1	3	2	7	2	16	3	
	9	23	1	1	3	2	7	2	15	3	
92	1	1	5	3	4	1	26	13	14	20	
	2	2	5	3	3	1	26	13	14	19	
	3	3	5	3	3	1	24	12	12	19	
	4	10	5	3	3	1	23	10	12	18	
	5	19	5	3	3	1	22	8	9	18	
	6	22	5	2	2	1	20	6	8	18	
	7	25	5	2	2	1	19	6	8	17	
	8	26	5	2	2	1	18	4	6	17	
	9	27	5	2	2	1	18	2	5	17	
93	1	1	2	3	4	4	24	23	23	29	
	2	6	2	3	3	4	24	23	22	28	
	3	9	2	3	3	3	24	21	19	25	
	4	10	2	3	3	3	24	20	14	23	
	5	13	2	3	3	2	24	19	12	20	
	6	19	1	3	3	2	24	18	10	19	
	7	20	1	3	3	1	24	18	9	16	
	8	21	1	3	3	1	24	17	4	15	
	9	22	1	3	3	1	24	16	3	14	
94	1	12	5	2	1	5	24	26	18	16	
	2	13	4	2	1	4	23	23	18	15	
	3	21	3	2	1	4	23	22	18	14	
	4	22	3	2	1	4	22	20	17	13	
	5	23	3	2	1	4	21	17	17	12	
	6	25	2	2	1	4	21	15	17	12	
	7	27	1	2	1	4	21	12	17	11	
	8	29	1	2	1	4	20	10	16	10	
	9	30	1	2	1	4	20	9	16	9	
95	1	9	5	4	2	5	19	18	26	17	
	2	12	5	4	1	4	18	17	25	15	
	3	17	5	4	1	4	17	13	22	14	
	4	18	5	4	1	4	16	13	19	13	
	5	20	5	4	1	4	14	9	18	9	
	6	25	5	4	1	3	14	9	13	8	
	7	26	5	4	1	3	13	7	13	5	
	8	27	5	4	1	3	11	4	10	5	
	9	30	5	4	1	3	11	1	7	2	
96	1	2	5	4	2	5	23	9	13	19	
	2	13	5	3	2	5	21	8	12	19	
	3	14	5	3	2	5	19	7	12	16	
	4	18	5	3	2	5	16	7	10	14	
	5	19	5	2	2	5	12	5	9	13	
	6	20	5	2	2	5	9	5	9	9	
	7	21	5	1	2	5	9	4	7	9	
	8	22	5	1	2	5	5	3	6	7	
	9	25	5	1	2	5	2	2	5	5	
97	1	9	4	1	4	4	27	22	25	28	
	2	10	3	1	3	4	24	19	25	23	
	3	11	3	1	3	4	21	19	25	21	
	4	12	3	1	3	4	17	17	25	19	
	5	17	2	1	3	4	14	15	25	18	
	6	23	2	1	2	4	12	15	25	16	
	7	24	1	1	2	4	9	13	25	14	
	8	29	1	1	2	4	5	12	25	13	
	9	30	1	1	2	4	2	11	25	10	
98	1	8	4	3	4	5	27	28	27	15	
	2	12	4	2	4	4	27	27	25	14	
	3	17	3	2	4	4	27	26	21	13	
	4	18	3	2	3	4	26	22	19	13	
	5	21	3	2	3	4	26	21	17	10	
	6	26	2	2	2	4	25	20	12	9	
	7	27	1	2	2	4	24	16	8	9	
	8	28	1	2	1	4	24	14	5	6	
	9	29	1	2	1	4	24	12	4	6	
99	1	2	2	2	3	4	29	19	17	26	
	2	7	2	1	2	3	27	18	15	26	
	3	9	2	1	2	3	23	17	13	24	
	4	10	2	1	2	3	21	17	13	20	
	5	12	2	1	2	3	21	16	11	18	
	6	20	1	1	2	2	18	15	11	17	
	7	21	1	1	2	2	15	13	9	14	
	8	24	1	1	2	2	13	12	9	10	
	9	29	1	1	2	2	12	12	7	10	
100	1	2	4	4	2	5	5	26	28	10	
	2	3	4	4	1	4	4	26	27	9	
	3	13	4	4	1	4	4	25	27	9	
	4	19	3	4	1	4	3	23	24	9	
	5	20	3	4	1	4	3	23	24	8	
	6	22	3	4	1	4	3	22	22	8	
	7	23	3	4	1	4	3	21	21	7	
	8	24	2	4	1	4	2	21	20	7	
	9	25	2	4	1	4	2	20	19	7	
101	1	4	5	3	1	4	7	12	27	6	
	2	6	4	3	1	3	7	12	25	6	
	3	11	4	3	1	3	6	11	21	6	
	4	14	4	3	1	3	6	9	20	6	
	5	15	4	2	1	2	5	8	18	6	
	6	16	4	2	1	2	5	8	16	5	
	7	17	4	1	1	1	4	6	13	5	
	8	25	4	1	1	1	4	5	13	5	
	9	29	4	1	1	1	3	5	11	5	
102	1	0	0	0	0	0	0	0	0	0	
************************************************************************

 RESOURCE AVAILABILITIES 
	R 1	R 2	R 3	R 4	N 1	N 2	N 3	N 4
	71	71	73	76	1319	1323	1316	1302

************************************************************************
